(set-logic QF_S)
(declare-fun var0 () Int)
(declare-fun var1 () String)
(declare-fun var2 () Int)
(declare-fun var3 () String)
(declare-fun var4 () Int)
(declare-fun var5 () String)
(declare-fun var6 () String)
(declare-fun var7 () Int)
(assert (> 54 var0))
(assert (< (str.indexof (str.at var1 var2) (str.at var3 var4) (str.indexof var5 var6 var7)) (str.to.int (str.at var6 var7))))
(assert (< (str.to.int var1) (str.len var3)))
(assert (not (str.in.re var1 re.allchar)))
(check-sat)